184 5
10 10 10 10 10 

0 0 0 0 0 0 1 2 
0 0 0 0 0 0 2 3 4 
2 0 0 5 0 0 4 8 7 6 5 
4 0 0 4 0 0 3 8 6 5 
5 0 0 8 0 0 4 12 11 10 9 
4 0 0 10 0 0 4 12 11 10 9 
7 0 0 10 0 0 4 12 11 10 9 
1 0 0 8 0 0 3 11 10 9 
8 0 0 6 0 0 1 13 
5 0 0 7 0 0 1 13 
2 0 0 10 0 0 1 13 
4 0 0 7 0 0 1 13 
0 0 0 0 0 0 1 14 
0 0 0 0 0 0 5 15 16 18 23 24 
9 0 1 0 0 0 3 22 21 19 
4 0 10 0 0 0 2 20 17 
6 0 10 0 0 0 1 19 
6 0 9 0 0 0 1 19 
10 0 7 0 0 0 1 25 
8 0 10 0 0 0 1 25 
10 0 7 0 0 0 1 25 
10 0 4 0 0 0 1 25 
6 0 7 0 0 0 1 25 
7 0 10 0 0 0 1 25 
0 0 0 0 0 0 3 26 38 50 
0 0 0 0 0 0 5 27 28 29 32 132 
6 0 1 0 0 0 4 36 35 33 31 
3 0 6 0 0 0 3 36 35 30 
5 0 10 0 0 0 1 30 
3 0 9 0 0 0 2 34 33 
4 0 7 0 0 0 1 34 
9 0 7 0 0 0 1 33 
6 0 10 0 0 0 1 37 
10 0 9 0 0 0 1 37 
8 0 9 0 0 0 1 37 
7 0 7 0 0 0 1 37 
0 0 0 0 0 0 1 62 
0 0 0 0 0 0 6 39 40 41 42 43 44 
9 0 2 0 0 0 2 46 45 
3 0 5 0 0 0 2 46 45 
6 0 8 0 0 0 2 46 45 
5 0 10 0 0 0 2 46 45 
2 0 10 0 0 0 2 46 45 
5 0 8 0 0 0 2 46 45 
7 0 10 0 0 0 3 48 47 102 
10 0 9 0 0 0 2 48 47 
2 0 7 0 0 0 1 49 
3 0 6 0 0 0 1 49 
0 0 0 0 0 0 1 62 
0 0 0 0 0 0 7 51 52 53 54 57 60 118 
4 0 0 3 0 0 2 59 58 
7 0 0 6 0 0 1 56 
1 0 0 5 0 0 1 55 
4 0 0 10 0 0 1 55 
5 0 0 10 0 0 1 58 
7 0 0 4 0 0 1 58 
4 0 0 10 0 0 1 58 
3 0 0 7 0 0 1 61 
4 0 0 10 0 0 1 61 
8 0 0 10 0 0 1 61 
0 0 0 0 0 0 1 62 
0 0 0 0 0 0 5 63 75 87 99 111 
0 0 0 0 0 0 3 64 65 66 
4 5 0 0 0 0 4 73 72 68 67 
5 2 0 0 0 0 5 73 72 70 69 68 
10 10 0 0 0 0 2 68 67 
7 7 0 0 0 0 2 70 69 
9 10 0 0 0 0 1 71 
5 9 0 0 0 0 1 74 
5 8 0 0 0 0 2 74 125 
9 7 0 0 0 0 1 74 
8 7 0 0 0 0 1 74 
1 10 0 0 0 0 1 74 
0 0 0 0 0 0 1 123 
0 0 0 0 0 0 4 76 77 84 85 
8 0 4 0 0 0 3 83 79 78 
3 0 7 0 0 0 1 78 
5 0 10 0 0 0 3 82 81 80 
5 0 6 0 0 0 1 80 
1 0 9 0 0 0 1 86 
2 0 6 0 0 0 1 86 
6 0 10 0 0 0 2 86 88 
2 0 6 0 0 0 1 86 
4 0 10 0 0 0 1 86 
1 0 7 0 0 0 1 86 
0 0 0 0 0 0 1 123 
0 0 0 0 0 0 5 88 89 90 96 97 
2 0 4 0 0 0 3 95 93 91 
7 0 10 0 0 0 2 95 92 
10 0 5 0 0 0 2 94 93 
6 0 6 0 0 0 1 94 
6 0 8 0 0 0 1 93 
9 0 10 0 0 0 2 98 121 
3 0 6 0 0 0 1 98 
2 0 6 0 0 0 1 98 
4 0 10 0 0 0 1 98 
6 0 10 0 0 0 1 98 
0 0 0 0 0 0 1 123 
0 0 0 0 0 0 2 100 101 
1 2 0 0 0 0 3 109 106 102 
1 8 0 0 0 0 4 106 105 104 103 
3 10 0 0 0 0 3 108 105 104 
8 8 0 0 0 0 1 107 
7 8 0 0 0 0 1 110 
6 8 0 0 0 0 2 110 170 
9 6 0 0 0 0 1 110 
6 9 0 0 0 0 1 110 
2 6 0 0 0 0 1 110 
1 10 0 0 0 0 1 110 
0 0 0 0 0 0 1 123 
0 0 0 0 0 0 3 112 113 115 
4 0 0 0 1 0 3 121 116 114 
3 0 0 0 10 0 4 120 119 118 117 
4 0 0 0 10 0 3 119 118 117 
10 0 0 0 9 0 3 121 120 117 
7 0 0 0 8 0 2 118 117 
9 0 0 0 7 0 2 122 178 
1 0 0 0 8 0 1 122 
7 0 0 0 6 0 1 122 
9 0 0 0 10 0 1 122 
8 0 0 0 6 0 1 122 
0 0 0 0 0 0 1 123 
0 0 0 0 0 0 5 124 136 148 160 172 
0 0 0 0 0 0 6 125 127 129 133 134 146 
7 0 0 0 3 0 3 132 128 126 
7 0 0 0 10 0 2 131 130 
9 0 0 0 9 0 2 131 130 
1 0 0 0 10 0 1 130 
9 0 0 0 9 0 1 130 
2 0 0 0 8 0 1 135 
1 0 0 0 5 0 1 135 
4 0 0 0 8 0 1 135 
3 0 0 0 7 0 1 135 
5 0 0 0 6 0 1 135 
0 0 0 0 0 0 1 184 
0 0 0 0 0 0 5 137 139 140 141 146 
4 0 0 0 1 0 2 142 138 
8 0 0 0 10 0 1 143 
8 0 0 0 10 0 1 145 
9 0 0 0 8 0 1 144 
2 0 0 0 8 0 2 142 164 
6 0 0 0 9 0 1 147 
9 0 0 0 10 0 1 147 
4 0 0 0 9 0 1 147 
8 0 0 0 2 0 1 147 
4 0 0 0 8 0 1 147 
0 0 0 0 0 0 1 184 
0 0 0 0 0 0 4 149 150 151 152 
5 0 0 0 4 0 3 157 154 153 
2 0 0 0 8 0 4 158 157 156 154 
5 0 0 0 2 0 3 157 156 154 
3 0 0 0 10 0 3 157 156 154 
1 0 0 0 7 0 3 158 156 155 
4 0 0 0 10 0 2 155 181 
6 0 0 0 8 0 1 159 
1 0 0 0 6 0 1 159 
1 0 0 0 10 0 1 159 
8 0 0 0 10 0 1 159 
0 0 0 0 0 0 1 184 
0 0 0 0 0 0 6 161 163 167 168 169 170 
6 4 0 0 0 0 1 162 
10 8 0 0 0 0 2 165 164 
1 9 0 0 0 0 2 166 181 
6 10 0 0 0 0 1 171 
7 8 0 0 0 0 1 171 
1 6 0 0 0 0 1 171 
7 7 0 0 0 0 1 171 
5 8 0 0 0 0 1 171 
6 7 0 0 0 0 1 171 
1 8 0 0 0 0 1 171 
0 0 0 0 0 0 1 184 
0 0 0 0 0 0 4 173 174 175 177 
10 0 0 4 0 0 4 182 181 179 178 
9 0 0 8 0 0 3 179 178 176 
8 0 0 10 0 0 3 179 178 176 
1 0 0 8 0 0 1 180 
4 0 0 7 0 0 1 178 
1 0 0 10 0 0 1 183 
5 0 0 9 0 0 1 183 
6 0 0 4 0 0 1 183 
2 0 0 7 0 0 1 183 
4 0 0 8 0 0 1 183 
0 0 0 0 0 0 1 184 
0 0 0 0 0 0 0 
